sat
(
  (define-fun G () String
    "")
  (define-fun J () String
    "")
  (define-fun F () String
    "")
  (define-fun M () String
    "baabaa")
  (define-fun H () String
    "")
  (define-fun K () String
    "")
  (define-fun L () String
    "b")
)
